results_rootrelaxation/bin012_080_045.srr.sol
solution status: optimal solution found
objective value:                     18.2413793103448
_var123_                           0.0344827586206895 	(obj:2)
_var729_                            0.517241379310345 	(obj:4)
_var737_                            0.103448275862069 	(obj:2)
_var747_                           0.0689655172413791 	(obj:1)
_var750_                            0.206896551724138 	(obj:1)
_var753_                            0.758620689655172 	(obj:1)
_var755_                            0.793103448275862 	(obj:1)
_var757_                           0.0344827586206895 	(obj:2)
_var763_                            0.310344827586207 	(obj:0)
_var769_                            0.103448275862069 	(obj:1)
_var775_                            0.137931034482758 	(obj:2)
_var784_                            0.103448275862069 	(obj:4)
_var790_                            0.241379310344828 	(obj:1)
_var809_                           0.0344827586206897 	(obj:1)
_var823_                            0.103448275862069 	(obj:1)
_var827_                            0.413793103448276 	(obj:1)
_var835_                            0.655172413793103 	(obj:1)
_var836_                            0.241379310344828 	(obj:1)
_var847_                            0.206896551724138 	(obj:2)
_var857_                            0.137931034482759 	(obj:1)
_var860_                           0.0344827586206896 	(obj:2)
_var862_                            0.620689655172414 	(obj:1)
_var866_                            0.241379310344828 	(obj:2)
_var868_                           0.0344827586206897 	(obj:1)
_var870_                            0.172413793103448 	(obj:2)
_var872_                           0.0689655172413794 	(obj:4)
_var873_                           0.0689655172413794 	(obj:1)
_var877_                            0.206896551724138 	(obj:3)
_var894_                            0.103448275862069 	(obj:4)
_var898_                            0.103448275862069 	(obj:3)
_var900_                            0.137931034482758 	(obj:2)
_var906_                            0.103448275862069 	(obj:2)
_var907_                            0.137931034482759 	(obj:1)
_var908_                           0.0689655172413794 	(obj:2)
_var913_                            0.206896551724138 	(obj:2)
_var914_                            0.172413793103448 	(obj:1)
_var915_                           0.0689655172413792 	(obj:4)
_var917_                            0.241379310344828 	(obj:0)
_var920_                           0.0689655172413793 	(obj:2)
_var925_                            0.137931034482759 	(obj:4)
_var928_                            0.413793103448276 	(obj:1)
_var930_                            0.206896551724138 	(obj:4)
_var931_                            0.137931034482759 	(obj:1)
_var934_                            0.206896551724138 	(obj:2)
_var935_                            0.103448275862069 	(obj:2)
_var936_                           0.0344827586206895 	(obj:1)
_var938_                            0.206896551724138 	(obj:3)
_var940_                            0.103448275862069 	(obj:3)
_var942_                            0.137931034482758 	(obj:1)
_var943_                            0.137931034482759 	(obj:3)
_var944_                            0.275862068965517 	(obj:1)
_var945_                            0.448275862068966 	(obj:2)
_var946_                           0.0344827586206897 	(obj:1)
_var950_                            0.275862068965517 	(obj:2)
_var954_                           0.0344827586206894 	(obj:2)
_var959_                           0.0344827586206897 	(obj:2)
